W=6;
H=5;

MAX_TIME=17;
MAX_TRACKS=11;

TARGET=(3,6);

N_TRAINS=3;
TRAINS=[(1,4,LEFT),(3,1,RIGHT),(5,5,LEFT)];

N_INIT_POS=6;
INIT_POS=[
(1,4,STRAIGHT_RL),
(3,1,STRAIGHT_RL),
(3,6,STRAIGHT_RL),
(5,3,CORNER_TR),
(5,4,STRAIGHT_RL),
(5,5,STRAIGHT_RL),
];
N_TUNNELS=0;
TUNNEL_PAIRS=[];

N_GATES=0;
GATES=[];
N_ACTIVATIONS=0;
ACTIVATIONS=[];

N_DSWITCHES=0;
DSWITCHES=[];
N_STATIONS=1;
STATIONS=[
  (5,4,2),
];
